c t pmc
c file mc2022_track3_015.cnf
p cnf 168 385
c p show 3 4 5 6 7 8 9 10 11 12 13 14 15 16 17 18 122 123 124 125 126 127 128 129 130 131 132 133 134 135 136 137 0
2 0
104 0
-105 0
167 0
-165 0
-166 0
71 101 74 88 99 98 87 96 90 91 92 93 94 89 95 85 86 97 83 81 78 79 80 77 72 73 75 69 84 100 82 76 70 0
49 -18 -50 0
-49 -34 50 0
43 -44 -12 0
12 44 -43 0
43 28 -44 0
36 -37 21 0
-36 5 37 0
-35 36 4 0
46 -15 -47 0
47 -46 -31 0
-44 13 45 0
29 44 -45 0
-36 -4 35 0
-35 -20 36 0
44 -28 -43 0
122 -19 1 0
-20 123 1 0
-122 3 -1 0
42 10 -41 0
-39 -7 38 0
39 -23 -38 0
39 7 -38 0
-39 23 38 0
-40 24 39 0
40 8 -39 0
-40 -8 39 0
40 -24 -39 0
-48 32 47 0
48 16 -47 0
-48 -16 47 0
48 -32 -47 0
-49 33 48 0
49 17 -48 0
-49 -17 48 0
49 -33 -48 0
49 34 -50 0
-49 18 50 0
47 -46 15 0
44 -13 -45 0
-36 20 35 0
-34 18 62 0
-18 34 -62 0
31 15 -81 0
-15 -31 -81 0
30 -14 80 0
14 -30 80 0
30 14 -80 0
-14 -30 -80 0
29 -13 79 0
-29 13 79 0
29 13 -79 0
-13 -29 -79 0
28 -12 78 0
12 -28 78 0
28 12 -78 0
-34 18 96 0
27 -11 77 0
-18 34 97 0
-34 18 97 0
34 18 -97 0
-18 -34 -97 0
-41 40 25 0
41 -40 9 0
38 -37 -22 0
-38 37 -6 0
40 -9 -41 0
41 -40 -25 0
38 -37 6 0
22 -38 37 0
-45 46 -30 0
45 -14 -46 0
-45 46 14 0
45 30 -46 0
46 31 -47 0
-44 -29 45 0
34 18 -100 0
-18 34 99 0
-34 18 99 0
34 18 -99 0
-18 -34 -99 0
-18 34 98 0
-34 18 98 0
-34 18 100 0
-18 34 100 0
68 101 -102 0
34 18 -98 0
-18 -34 -98 0
-34 18 93 0
34 18 -93 0
-18 -34 -93 0
-18 34 92 0
-34 18 92 0
-18 -34 -90 0
34 18 -90 0
-34 18 90 0
-18 34 90 0
-18 -34 -91 0
-18 34 89 0
-34 18 89 0
34 18 -89 0
-18 -34 -89 0
-18 34 88 0
-34 18 88 0
34 18 -88 0
-18 -34 -88 0
-18 34 87 0
-34 18 87 0
-18 34 96 0
-122 19 1 0
122 -3 -1 0
-18 -34 -100 0
34 18 -96 0
-18 34 95 0
-34 18 95 0
34 18 -95 0
-18 -34 -95 0
-18 34 94 0
-34 18 94 0
34 18 -94 0
-18 -34 -94 0
-18 34 93 0
43 -27 -42 0
-11 -43 42 0
43 11 -42 0
27 -43 42 0
36 -37 -5 0
-36 -21 37 0
42 -26 -41 0
-10 -42 41 0
34 18 -92 0
-42 26 41 0
-18 -34 -92 0
136 -17 -1 0
130 -11 -1 0
-130 11 -1 0
-136 33 1 0
136 -33 1 0
-28 131 1 0
-131 28 1 0
34 18 -91 0
-34 18 91 0
-18 34 91 0
34 18 -87 0
-18 -34 -87 0
-18 34 86 0
-34 18 86 0
34 18 -86 0
-18 -34 -86 0
-18 -34 -96 0
133 -30 1 0
-132 13 -1 0
132 -13 -1 0
135 -32 1 0
-135 32 1 0
-132 29 1 0
132 -29 1 0
135 -16 -1 0
-135 16 -1 0
-131 12 -1 0
-67 -68 66 0
67 -68 -66 0
-67 34 18 0
38 6 -22 0
-39 23 -7 0
39 7 -23 0
-40 24 -8 0
40 8 -24 0
128 -9 -1 0
25 -128 1 0
128 -25 1 0
-156 -154 -158 0
-136 17 -1 0
-130 27 1 0
130 -27 1 0
-129 10 -1 0
129 -10 -1 0
-137 34 1 0
-129 26 1 0
129 -26 1 0
134 -31 1 0
-134 31 1 0
-133 14 -1 0
133 -14 -1 0
134 -15 -1 0
-134 15 -1 0
-133 30 1 0
127 -24 1 0
-126 7 -1 0
-7 126 -1 0
-157 -155 -159 0
155 157 -159 0
-126 23 1 0
47 -31 15 0
-4 20 70 0
-48 32 -16 0
48 16 -32 0
-20 4 70 0
4 20 -70 0
-20 -4 -70 0
19 -3 69 0
-19 3 69 0
-69 3 19 0
-69 -19 -3 0
-67 -66 68 0
67 66 68 0
-41 -9 25 0
41 -25 9 0
-42 -10 26 0
42 -26 10 0
-43 27 -11 0
43 -27 11 0
28 -44 -12 0
12 -28 44 0
-13 29 -45 0
13 -29 45 0
-14 30 -46 0
-30 14 46 0
-47 31 -15 0
156 154 -158 0
-127 8 -1 0
127 -8 -1 0
-154 156 158 0
-10 -26 -76 0
154 -156 158 0
-127 24 1 0
-9 -25 -75 0
24 -8 74 0
-24 8 74 0
24 8 -74 0
-8 -24 -74 0
23 -7 73 0
7 -23 73 0
23 7 -73 0
-7 -23 -73 0
-6 22 72 0
27 11 -77 0
-11 -27 -77 0
-18 34 85 0
-34 18 85 0
34 18 -85 0
-28 -12 -78 0
-18 34 84 0
-34 18 84 0
34 18 -84 0
11 -27 77 0
49 17 -33 0
-49 33 -17 0
-67 -18 -34 0
5 21 -71 0
-21 -5 -71 0
19 -35 -3 0
-36 -4 20 0
-20 36 4 0
-37 21 -5 0
37 -21 5 0
-38 22 -6 0
-10 26 76 0
-26 10 76 0
26 10 -76 0
6 22 -72 0
-9 25 75 0
-25 9 75 0
25 9 -75 0
131 -12 -1 0
126 -23 1 0
-155 157 159 0
-157 155 159 0
-125 6 -1 0
125 -6 -1 0
22 -125 1 0
125 -22 1 0
159 160 158 0
-124 5 -1 0
124 -5 -1 0
-124 21 1 0
124 -21 1 0
4 -123 -1 0
123 -4 -1 0
-18 -34 -85 0
-123 20 1 0
18 -137 -1 0
-128 9 -1 0
-18 -34 -84 0
33 -17 83 0
17 -33 83 0
33 17 -83 0
-17 -33 -83 0
32 -16 82 0
16 -32 82 0
32 16 -82 0
-16 -32 -82 0
5 -21 71 0
-15 31 81 0
15 -31 81 0
6 -22 72 0
-5 21 71 0
-6 -22 -72 0
59 -58 0
-59 58 0
60 -59 0
58 -57 0
-58 57 0
66 -65 0
-65 64 0
-66 65 0
65 -64 0
-68 102 0
-60 59 0
102 -101 0
-69 -101 0
-70 -101 0
-71 -101 0
-72 -101 0
-73 -101 0
-74 -101 0
-75 -101 0
-76 -101 0
-64 63 0
63 -62 0
-63 62 0
62 -61 0
-62 61 0
51 -52 0
64 -63 0
-51 52 0
-50 51 0
50 -51 0
-18 137 0
137 -34 0
3 35 0
35 -19 0
57 -56 0
-57 56 0
56 -55 0
-56 55 0
61 -60 0
-61 60 0
-55 54 0
54 -53 0
55 -54 0
-54 53 0
-52 53 0
52 -53 0
160 -103 0
-160 103 0
-159 -160 0
-158 -160 0
-78 -101 0
1 102 0
162 -164 0
-161 163 0
-163 161 0
164 -162 0
-103 102 0
-1 -102 0
-84 -101 0
-85 -101 0
-77 -101 0
-79 -101 0
-80 -101 0
-81 -101 0
-82 -101 0
-83 -101 0
-86 -101 0
-87 -101 0
-88 -101 0
-89 -101 0
-90 -101 0
-91 -101 0
-92 -101 0
-93 -101 0
-94 -101 0
-95 -101 0
-96 -101 0
-97 -101 0
-98 -101 0
-99 -101 0
-100 -101 0
